NAME : ch130.6648.tour
COMMENT : Cost = 2217_6648
COMMENT : Found by LKH [Keld Helsgaun] Thu Nov 16 17:24:02 2017
TYPE : TOUR
DIMENSION : 132
TOUR_SECTION
1
16
128
105
112
62
28
115
83
30
59
90
125
85
66
78
121
13
67
96
14
10
102
6
55
122
23
47
40
37
22
33
21
20
118
80
46
18
108
8
126
114
3
117
41
132
127
107
104
43
68
48
25
113
32
36
84
119
111
123
101
82
57
9
56
65
52
75
74
73
99
91
72
49
58
53
120
60
51
42
44
93
4
35
54
2
50
130
71
39
131
34
17
31
27
19
100
15
29
24
116
95
79
38
106
92
12
87
81
103
77
94
89
110
98
63
70
97
7
26
88
86
69
64
124
129
61
109
76
11
5
45
-1
EOF
